
<<< setup


<<< generate

CPXPARAM_Simplex_Tolerances_Optimality           0.001
CPXPARAM_Simplex_Tolerances_Feasibility          0.001
CPXPARAM_TimeLimit                               3600
CPXPARAM_Threads                                 8
CPXPARAM_MIP_Tolerances_AbsMIPGap                0.001
CPXPARAM_MIP_Tolerances_MIPGap                   0.001
CPXPARAM_MIP_Tolerances_Integrality              0.001
CPXPARAM_MIP_Display                             4
CPXPARAM_MIP_PolishAfter_Solutions               1
Tried aggregator 1 time.
MIQCP Presolve eliminated 2 rows and 2 columns.
Reduced MIQCP has 133 rows, 387 columns, and 4489 nonzeros.
Reduced MIQCP has 0 binaries, 32 generals, 0 SOSs, and 0 indicators.
Reduced MIQCP has 66 quadratic constraints.
Presolve time = 0.02 sec. (1.92 ticks)
MIP emphasis: balance optimality and feasibility.
MIP search method: dynamic search.
Parallel mode: deterministic, using up to 8 threads.
Initializing dual steep norms . . .

Iteration log . . .
Iteration:     1   Scaled dual infeas =           338.631904

Iteration log . . .
Iteration:     1    Scaled infeas =             0.000000
Root relaxation solution time = 0.00 sec. (0.32 ticks)

        Nodes                                         Cuts/
   Node  Left     Objective  IInf  Best Integer    Best Bound    ItCnt     Gap

      0     0       -0.2208    32                     -0.2208       19         
*     0+    0                            0.7604       -0.2208           129.04%
Found incumbent of value 0.760368 after 0.20 sec. (68.72 ticks)

Starting condition for polishing reached (PolishAfterIntSol).
Starting solution polishing.

      0     0        cutoff              0.7604       -0.2208       33  129.04%
Elapsed time = 0.23 sec. (107.81 ticks, tree = 0.01 MB, solutions = 1)

Root node processing (before b&c):
  Real time             =    0.20 sec. (68.75 ticks)
Parallel b&c, 8 threads:
  Real time             =    0.09 sec. (39.23 ticks)
  Sync time (average)   =    0.07 sec.
  Wait time (average)   =    0.01 sec.
                          ------------
Total (root+branch&cut) =    0.30 sec. (107.98 ticks)

<<< solve


OBJECTIVE: 0.7603678
X*: [9998.2 10003 9998.2 10003 9997.2 10003 9997.2 10003 9998.2 10003 9997.2 10003
     9997.2 10003 9996.2 10003 9997.2 10003 9996.2 10003 9996.2 10003 9996.2
     10003 9996.2 10003 9996.2 10003 9996.2 10002 9996.2 10003] Z*: [9998 10003 9998 10003 9997 10003 9997 10003 9998 10003 9997 10003 9997 10003
     9996 10003 9997 10003 9996 10003 9996 10003 9996 10003 9996 10003 9996
     10003 9996 10002 9996 10003]
f*:0.779829815

<<< post process


<<< done

